(set-option :print-success false)
(set-logic QF_UF)
(declare-sort x112 0)
(declare-sort x129 0)
(declare-fun x56 () x129)
(declare-fun x102 () x129)
(declare-fun x7 () x129)
(declare-fun x158 () x129)
(declare-fun x95 () x129)
(declare-fun x13 (x129 x129) x129)
(assert (not (and (and (and (= (x13 x7 x158) x102) (= (x13 x95 x95) x7)) (= (x13 x7 x95) x158)) (= (x13 x95 x102) x56))))
(assert (not (and (= x158 (x13 x7 x102)) (and (= x56 (x13 x95 x7)) (and (= x102 (x13 x95 x56)) (= x95 (x13 x7 x7)))))))
(assert (not (and (= (x13 x158 x7) x102) (and (and (= x7 (x13 x56 x95)) (= x56 (x13 x158 x158))) (= x95 (x13 x56 x158))))))
(assert (not (and (and (and (= x158 (x13 x7 x7)) (= (x13 x158 x95) x56)) (= (x13 x158 x7) x95)) (= x102 (x13 x7 x56)))))
(assert (not (and (and (and (= (x13 x56 x56) x158) (= (x13 x158 x102) x7)) (= (x13 x158 x56) x102)) (= x95 (x13 x56 x7)))))
(assert (not (and (= x158 (x13 x102 x95)) (and (and (= (x13 x7 x56) x95) (= x7 (x13 x102 x102))) (= x56 (x13 x7 x102))))))
(assert (or (and (not (= (x13 (x13 x158 x158) x158) x158)) (and (and (not (= (x13 (x13 x102 x158) x102) x158)) (and (not (= (x13 (x13 x7 x158) x7) x158)) (not (= x158 (x13 (x13 x95 x158) x95))))) (not (= (x13 (x13 x56 x158) x56) x158)))) (or (and (and (and (and (not (= (x13 (x13 x95 x56) x95) x56)) (not (= x56 (x13 (x13 x7 x56) x7)))) (not (= x56 (x13 (x13 x102 x56) x102)))) (not (= (x13 (x13 x56 x56) x56) x56))) (not (= x56 (x13 (x13 x158 x56) x158)))) (or (or (and (and (not (= (x13 (x13 x56 x95) x56) x95)) (and (not (= (x13 (x13 x102 x95) x102) x95)) (and (not (= (x13 (x13 x7 x95) x7) x95)) (not (= (x13 (x13 x95 x95) x95) x95))))) (not (= (x13 (x13 x158 x95) x158) x95))) (and (and (not (= (x13 (x13 x56 x7) x56) x7)) (and (not (= x7 (x13 (x13 x102 x7) x102))) (and (not (= x7 (x13 (x13 x95 x7) x95))) (not (= x7 (x13 (x13 x7 x7) x7)))))) (not (= (x13 (x13 x158 x7) x158) x7)))) (and (and (and (not (= x102 (x13 (x13 x102 x102) x102))) (and (not (= x102 (x13 (x13 x95 x102) x95))) (not (= (x13 (x13 x7 x102) x7) x102)))) (not (= (x13 (x13 x56 x102) x56) x102))) (not (= (x13 (x13 x158 x102) x158) x102)))))))
(assert (not (and (and (and (= (x13 x158 x158) x95) (= x102 (x13 x95 x56))) (= (x13 x95 x158) x56)) (= (x13 x158 x102) x7))))
(assert (not (and (= (x13 x158 x95) x7) (and (and (= x95 (x13 x102 x56)) (= (x13 x158 x158) x102)) (= x56 (x13 x102 x158))))))
(assert (not (and (and (and (= (x13 x102 x102) x95) (= (x13 x95 x7) x56)) (= x7 (x13 x95 x102))) (= (x13 x102 x56) x158))))
(assert (not (and (and (and (= (x13 x158 x158) x56) (= x7 (x13 x56 x102))) (= x102 (x13 x56 x158))) (= x95 (x13 x158 x7)))))
(assert (not (and (and (and (= (x13 x158 x7) x56) (= (x13 x95 x95) x158)) (= x7 (x13 x158 x95))) (= x102 (x13 x95 x56)))))
(assert (not (and (and (= (x13 x95 x7) x102) (and (= (x13 x95 x102) x56) (= x95 (x13 x7 x7)))) (= x158 (x13 x7 x56)))))
(assert (not (and (and (and (= x7 (x13 x95 x95)) (= (x13 x7 x56) x102)) (= x56 (x13 x7 x95))) (= x158 (x13 x95 x102)))))
(assert (not (and (and (= x102 (x13 x158 x7)) (and (= x158 (x13 x7 x7)) (= (x13 x158 x102) x56))) (= (x13 x7 x56) x95))))
(assert (not (and (= (x13 x102 x95) x56) (and (= (x13 x158 x102) x7) (and (= (x13 x158 x7) x95) (= x158 (x13 x102 x102)))))))
(assert (not (and (and (and (= (x13 x56 x56) x95) (= x102 (x13 x95 x7))) (= x7 (x13 x95 x56))) (= (x13 x56 x102) x158))))
(assert (not (and (and (= x95 (x13 x158 x7)) (and (= x158 (x13 x7 x7)) (= x102 (x13 x158 x95)))) (= x56 (x13 x7 x102)))))
(assert (not (and (and (and (= x158 (x13 x56 x102)) (= x56 (x13 x7 x7))) (= x102 (x13 x56 x7))) (= x95 (x13 x7 x158)))))
(assert (not (and (and (and (= x158 (x13 x7 x7)) (= (x13 x158 x56) x102)) (= x56 (x13 x158 x7))) (= x95 (x13 x7 x102)))))
(assert (not (and (= x95 (x13 x102 x7)) (and (and (= x158 (x13 x102 x102)) (= (x13 x158 x56) x7)) (= x56 (x13 x158 x102))))))
(assert (not (and (and (and (= x158 (x13 x7 x95)) (= (x13 x56 x56) x7)) (= x95 (x13 x7 x56))) (= x102 (x13 x56 x158)))))
(assert (not (and (= (x13 x95 x56) x158) (and (and (= x56 (x13 x102 x7)) (= x102 (x13 x95 x95))) (= x7 (x13 x102 x95))))))
(assert (not (and (= x102 (x13 x158 x95)) (and (= x7 (x13 x56 x158)) (and (= x56 (x13 x158 x158)) (= (x13 x56 x7) x95))))))
(assert (not (and (= x95 (x13 x56 x158)) (and (= x102 (x13 x7 x56)) (and (= x158 (x13 x7 x102)) (= (x13 x56 x56) x7))))))
(assert (let ((x89 (x13 x95 x158)) (x48 (x13 x102 x102)) (x26 (x13 x56 x95)) (x150 (x13 x158 x102)) (x137 (x13 x158 x95)) (x103 (x13 x102 x95)) (x125 (x13 x95 x7)) (x130 (x13 x56 x56)) (x148 (x13 x7 x7)) (x135 (x13 x95 x56)) (x97 (x13 x7 x102)) (x77 (x13 x102 x56)) (x42 (x13 x56 x158)) (x80 (x13 x102 x158)) (x98 (x13 x56 x102)) (x18 (x13 x56 x7)) (x31 (x13 x158 x158)) (x149 (x13 x7 x95)) (x25 (x13 x158 x7)) (x51 (x13 x7 x56)) (x64 (x13 x7 x158)) (x156 (x13 x95 x95)) (x96 (x13 x102 x7)) (x99 (x13 x158 x56)) (x109 (x13 x95 x102))) (let ((x35 (= x7 x98)) (x144 (= x31 x56)) (x66 (= x125 x7)) (x53 (= x158 x99)) (x133 (= x95 x25)) (x34 (= x102 x96)) (x85 (= x56 x18)) (x17 (= x95 x103)) (x10 (= x158 x77)) (x153 (= x158 x109)) (x86 (= x31 x158)) (x63 (= x102 x18)) (x132 (= x56 x125)) (x151 (= x7 x156)) (x134 (= x18 x158)) (x123 (= x156 x102)) (x70 (= x158 x130)) (x108 (= x95 x149)) (x38 (= x80 x102)) (x128 (= x135 x158)) (x90 (= x64 x7)) (x120 (= x7 x137)) (x71 (= x96 x95)) (x3 (= x103 x158)) (x61 (= x56 x130)) (x82 (= x7 x42)) (x12 (= x77 x95)) (x67 (= x98 x95)) (x119 (= x156 x158)) (x115 (= x95 x48)) (x78 (= x25 x158)) (x73 (= x7 x148)) (x141 (= x26 x95)) (x65 (= x95 x125)) (x49 (= x7 x135)) (x2 (= x158 x48)) (x52 (= x102 x137)) (x43 (= x148 x56)) (x37 (= x7 x77)) (x1 (= x7 x51)) (x110 (= x150 x158)) (x101 (= x150 x7)) (x32 (= x109 x56)) (x68 (= x95 x130)) (x33 (= x7 x80)) (x54 (= x158 x149)) (x21 (= x7 x130)) (x117 (= x130 x102)) (x113 (= x109 x102)) (x142 (= x95 x80)) (x40 (= x18 x7)) (x118 (= x158 x148)) (x6 (= x7 x109)) (x19 (= x95 x137)) (x29 (= x56 x103)) (x106 (= x56 x51)) (x152 (= x31 x95)) (x140 (= x77 x56)) (x84 (= x150 x102)) (x16 (= x56 x26)) (x76 (= x96 x56)) (x111 (= x158 x42)) (x81 (= x102 x77)) (x136 (= x89 x95)) (x127 (= x158 x51)) (x87 (= x42 x56)) (x104 (= x158 x96)) (x58 (= x135 x102)) (x114 (= x7 x103)) (x92 (= x158 x80)) (x157 (= x102 x89)) (x121 (= x64 x95)) (x59 (= x80 x56)) (x138 (= x102 x48)) (x50 (= x89 x56)) (x145 (= x102 x51)) (x88 (= x7 x96)) (x36 (= x95 x97)) (x143 (= x99 x56)) (x8 (= x149 x7)) (x39 (= x7 x31)) (x105 (= x7 x25)) (x69 (= x48 x7)) (x47 (= x7 x89)) (x155 (= x64 x102)) (x93 (= x156 x56)) (x27 (= x99 x7)) (x147 (= x102 x98)) (x41 (= x89 x158)) (x62 (= x158 x26)) (x45 (= x148 x102)) (x44 (= x99 x95)) (x4 (= x102 x31)) (x131 (= x156 x95)) (x9 (= x95 x135)) (x30 (= x97 x56)) (x126 (= x18 x95)) (x124 (= x125 x158)) (x14 (= x7 x97)) (x116 (= x102 x42)) (x72 (= x56 x137)) (x154 (= x26 x7)) (x46 (= x64 x158)) (x11 (= x148 x95)) (x91 (= x56 x98)) (x57 (= x102 x99)) (x79 (= x64 x56)) (x60 (= x149 x102)) (x122 (= x95 x150)) (x139 (= x56 x25)) (x83 (= x102 x125)) (x94 (= x158 x137)) (x146 (= x95 x42)) (x55 (= x26 x102)) (x28 (= x150 x56)) (x24 (= x158 x98)) (x74 (= x109 x95)) (x23 (= x102 x25)) (x75 (= x149 x56)) (x20 (= x56 x135)) (x5 (= x51 x95)) (x22 (= x48 x56)) (x100 (= x97 x102)) (x15 (= x97 x158)) (x107 (= x103 x102))) (or (and (and (and (or x53 (not x111)) (and (or x70 (not x70)) (and (and (or (not x62) x128) (or x127 (not x134))) (or x10 (not x24))))) (and (and (and (or (not x41) x94) (and (or (not x128) x62) (and (or (not x153) x3) (and (or x54 (not x124)) (or x119 (not x119)))))) (and (or x78 (not x46)) (and (and (or x104 (not x15)) (and (or (not x118) x118) (or x124 (not x54)))) (or (not x127) x134)))) (and (and (and (or x2 (not x2)) (and (or (not x3) x153) (or x15 (not x104)))) (or (not x10) x24)) (or (not x92) x110)))) (and (or x86 (not x86)) (and (or x111 (not x53)) (and (or x92 (not x110)) (and (or x46 (not x78)) (or x41 (not x94))))))) (or (or (or (and (and (and (or x82 (not x27)) (and (or (not x101) x33) (and (or (not x120) x47) (or (not x105) x90)))) (or (not x39) x39)) (and (and (or x27 (not x82)) (and (and (and (or x49 (not x154)) (or x1 (not x40))) (or (not x35) x37)) (or x21 (not x21)))) (and (and (and (or (not x47) x120) (and (and (or (not x6) x114) (and (or x151 (not x151)) (or (not x66) x8))) (or (not x49) x154))) (and (and (or x40 (not x1)) (and (and (or x66 (not x8)) (or (not x73) x73)) (or (not x14) x88))) (or x105 (not x90)))) (and (or (not x33) x101) (and (and (or (not x69) x69) (and (or (not x88) x14) (or (not x114) x6))) (or x35 (not x37))))))) (and (and (and (or (not x44) x146) (and (or x142 (not x122)) (and (or x136 (not x19)) (or (not x133) x121)))) (or (not x152) x152)) (and (and (and (and (and (and (or (not x17) x74) (or x36 (not x71))) (or x115 (not x115))) (or x67 (not x12))) (or (not x142) x122)) (and (and (and (and (and (or (not x65) x108) (or (not x131) x131)) (or x17 (not x74))) (or (not x9) x141)) (or (not x136) x19)) (and (and (or (not x5) x126) (and (and (or x11 (not x11)) (or x65 (not x108))) (or x71 (not x36)))) (or x133 (not x121))))) (and (and (or x68 (not x68)) (and (and (or (not x141) x9) (or (not x126) x5)) (or (not x67) x12))) (or (not x146) x44))))) (and (and (and (or (not x57) x116) (and (or (not x84) x38) (and (or (not x52) x157) (or x155 (not x23))))) (or (not x4) x4)) (and (and (and (and (or x52 (not x157)) (and (or x55 (not x58)) (and (and (or (not x83) x60) (or x123 (not x123))) (or x107 (not x113))))) (and (and (and (and (or (not x45) x45) (or x83 (not x60))) (or x34 (not x100))) (or (not x145) x63)) (or (not x155) x23))) (and (or x84 (not x38)) (and (and (or (not x138) x138) (and (or x100 (not x34)) (or (not x107) x113))) (or (not x81) x147)))) (and (and (or x117 (not x117)) (and (or (not x147) x81) (and (or (not x63) x145) (or x58 (not x55))))) (or (not x116) x57))))) (and (and (and (or x143 (not x87)) (and (or (not x61) x61) (and (or (not x91) x140) (and (or (not x85) x106) (or (not x16) x20))))) (and (and (or (not x59) x28) (and (or x91 (not x140)) (and (and (or x32 (not x29)) (or x30 (not x76))) (or (not x22) x22)))) (and (and (and (or x85 (not x106)) (and (or x76 (not x30)) (and (or x43 (not x43)) (or (not x75) x132)))) (or x139 (not x79))) (and (and (and (or x29 (not x32)) (and (or (not x132) x75) (or (not x93) x93))) (or (not x20) x16)) (or x72 (not x50)))))) (and (and (or x87 (not x143)) (and (or (not x28) x59) (and (or x79 (not x139)) (or (not x72) x50)))) (or x144 (not x144)))))))))
(assert (let ((x142 (x13 x7 x158)) (x151 (x13 x158 x7)) (x100 (x13 x158 x56)) (x50 (x13 x158 x158)) (x17 (x13 x95 x56)) (x74 (x13 x95 x158)) (x64 (x13 x102 x102)) (x115 (x13 x102 x95)) (x65 (x13 x95 x7)) (x121 (x13 x7 x102)) (x108 (x13 x95 x95)) (x122 (x13 x7 x56)) (x11 (x13 x95 x102)) (x141 (x13 x56 x95)) (x60 (x13 x56 x56)) (x83 (x13 x56 x158)) (x48 (x13 x56 x102)) (x69 (x13 x158 x102)) (x114 (x13 x102 x158)) (x36 (x13 x7 x95)) (x9 (x13 x158 x95)) (x156 (x13 x56 x7)) (x133 (x13 x7 x7)) (x25 (x13 x102 x56)) (x152 (x13 x102 x7))) (let ((x26 (= x56 x133)) (x132 (= x158 x25)) (x37 (= x56 x64)) (x137 (= x158 x65)) (x68 (= x65 x95)) (x94 (= x9 x158)) (x118 (= x142 x102)) (x97 (= x95 x121)) (x77 (= x115 x102)) (x105 (= x156 x95)) (x127 (= x142 x56)) (x143 (= x7 x50)) (x85 (= x95 x83)) (x3 (= x114 x102)) (x31 (= x141 x7)) (x35 (= x56 x121)) (x84 (= x56 x25)) (x62 (= x56 x69)) (x43 (= x158 x60)) (x153 (= x102 x83)) (x34 (= x7 x60)) (x14 (= x7 x64)) (x75 (= x158 x122)) (x24 (= x56 x114)) (x88 (= x121 x7)) (x113 (= x25 x7)) (x72 (= x7 x100)) (x79 (= x7 x142)) (x145 (= x122 x102)) (x146 (= x133 x7)) (x101 (= x17 x95)) (x20 (= x114 x95)) (x109 (= x102 x133)) (x155 (= x122 x56)) (x52 (= x156 x56)) (x134 (= x74 x56)) (x21 (= x152 x158)) (x90 (= x95 x48)) (x73 (= x11 x95)) (x61 (= x7 x69)) (x27 (= x25 x95)) (x59 (= x83 x7)) (x131 (= x95 x108)) (x140 (= x151 x7)) (x111 (= x83 x158)) (x139 (= x74 x7)) (x106 (= x95 x50)) (x66 (= x95 x115)) (x40 (= x56 x152)) (x41 (= x151 x158)) (x99 (= x121 x158)) (x28 (= x7 x114)) (x80 (= x102 x11)) (x120 (= x64 x158)) (x58 (= x102 x48)) (x81 (= x60 x102)) (x38 (= x56 x60)) (x12 (= x36 x95)) (x23 (= x56 x17)) (x147 (= x25 x102)) (x19 (= x133 x95)) (x76 (= x69 x95)) (x150 (= x121 x102)) (x91 (= x9 x7)) (x148 (= x152 x95)) (x149 (= x65 x102)) (x82 (= x95 x60)) (x55 (= x156 x102)) (x126 (= x108 x102)) (x92 (= x142 x158)) (x42 (= x11 x158)) (x70 (= x56 x50)) (x5 (= x56 x108)) (x63 (= x17 x102)) (x29 (= x95 x9)) (x117 (= x141 x56)) (x144 (= x102 x151)) (x30 (= x100 x95)) (x44 (= x7 x65)) (x33 (= x95 x122)) (x39 (= x156 x7)) (x157 (= x56 x48)) (x125 (= x102 x36)) (x138 (= x102 x141)) (x2 (= x151 x56)) (x4 (= x48 x158)) (x67 (= x158 x108)) (x32 (= x95 x151)) (x57 (= x158 x141)) (x54 (= x100 x102)) (x53 (= x158 x114)) (x15 (= x56 x9)) (x18 (= x7 x152)) (x124 (= x102 x74)) (x51 (= x115 x7)) (x96 (= x64 x95)) (x110 (= x74 x158)) (x6 (= x11 x7)) (x49 (= x115 x56)) (x71 (= x7 x108)) (x16 (= x142 x95)) (x1 (= x11 x56)) (x89 (= x158 x36)) (x22 (= x95 x74)) (x154 (= x64 x102)) (x116 (= x158 x156)) (x123 (= x7 x48)) (x45 (= x17 x7)) (x128 (= x100 x56)) (x86 (= x158 x50)) (x46 (= x158 x100)) (x104 (= x50 x102)) (x103 (= x56 x36)) (x87 (= x102 x9)) (x119 (= x102 x69)) (x10 (= x56 x83)) (x136 (= x7 x36)) (x98 (= x152 x102)) (x8 (= x133 x158)) (x78 (= x158 x69)) (x130 (= x115 x158)) (x47 (= x95 x141)) (x93 (= x17 x158)) (x107 (= x122 x7)) (x135 (= x65 x56))) (and (and (and (and (and (and (and (or (or (or x49 (or x103 x5)) x117) x15) (or (or (or x1 (or x135 x5)) x23) x134)) (and (and (or (or x63 (or (or x149 x126) x80)) x124) (or (or x138 (or (or x126 x125) x77)) x87)) (and (and (or x139 (or x45 (or (or x71 x44) x6))) (or (or (or (or x71 x136) x51) x31) x91)) (and (or (or x47 (or x66 (or x12 x131))) x29) (or (or x101 (or (or x68 x131) x73)) x22))))) (and (or (or (or x42 (or x67 x137)) x93) x110) (or (or x57 (or (or x89 x67) x130)) x94))) (and (and (or (or x75 (or x99 (or x8 x89))) x92) (or (or (or (or x137 x8) x21) x116) x41)) (and (and (and (or (or x55 (or (or x109 x149) x98)) x144) (or (or (or (or x109 x125) x150) x145) x118)) (and (and (or (or (or x148 (or x68 x19)) x105) x32) (or (or (or x97 (or x12 x19)) x33) x16)) (and (or x79 (or x107 (or x88 (or x146 x136)))) (or x140 (or (or x18 (or x146 x44)) x39))))) (and (or x127 (or x155 (or (or x103 x26) x35))) (or x2 (or (or (or x26 x135) x40) x52)))))) (and (and (or (or (or x120 (or x99 x42)) x4) x78) (or (or x132 (or (or x21 x130) x120)) x53)) (and (and (and (and (or (or x123 (or (or x6 x88) x14)) x61) (or (or (or x14 (or x51 x18)) x113) x28)) (and (or x76 (or (or (or x73 x97) x96) x90)) (or (or (or (or x148 x66) x96) x27) x20))) (and (or x3 (or (or (or x98 x77) x154) x147)) (or (or x58 (or (or x80 x150) x154)) x119))) (and (or (or (or (or x1 x35) x37) x157) x62) (or (or (or x37 (or x49 x40)) x84) x24))))) (and (and (or (or (or x4 (or x116 x57)) x43) x111) (or x46 (or x43 (or (or x93 x75) x132)))) (and (and (and (or x153 (or x81 (or x58 (or x55 x138)))) (or (or (or x147 (or x63 x145)) x81) x54)) (and (and (or x59 (or x34 (or (or x31 x39) x123))) (or (or x34 (or x113 (or x107 x45))) x72)) (and (or x85 (or x82 (or x90 (or x47 x105)))) (or x30 (or (or x27 (or x101 x33)) x82))))) (and (or (or (or x157 (or x52 x117)) x38) x10) (or x128 (or x38 (or x84 (or x23 x155)))))))) (and (and (or x86 (or (or (or x92 x110) x53) x111)) (or x86 (or x46 (or (or x94 x41) x78)))) (and (and (or (or (or (or x15 x2) x62) x128) x70) (or x70 (or x10 (or (or x134 x127) x24)))) (and (and (or x104 (or (or (or x118 x124) x3) x153)) (or (or (or (or x144 x87) x119) x54) x104)) (and (and (or x106 (or (or (or x22 x16) x20) x85)) (or x106 (or (or x76 (or x32 x29)) x30))) (and (or (or (or (or x79 x139) x28) x59) x143) (or (or x72 (or x61 (or x91 x140))) x143))))))))))
(assert (not (and (= (x13 x7 x95) x158) (and (and (= x95 (x13 x102 x56)) (= x102 (x13 x7 x7))) (= x56 (x13 x102 x7))))))
(assert (not (and (= x95 (x13 x158 x102)) (and (and (= (x13 x56 x7) x102) (= x56 (x13 x158 x158))) (= x7 (x13 x56 x158))))))
(assert (not (and (= (x13 x7 x158) x56) (and (= x95 (x13 x102 x7)) (and (= x158 (x13 x102 x95)) (= x102 (x13 x7 x7)))))))
(assert (not (and (and (and (= (x13 x56 x102) x95) (= (x13 x7 x7) x56)) (= (x13 x56 x7) x102)) (= x158 (x13 x7 x95)))))
(assert (let ((x122 (x13 x102 x158)) (x9 (x13 x56 x95)) (x115 (x13 x102 x102)) (x146 (x13 x158 x56)) (x17 (x13 x95 x102)) (x5 (x13 x56 x7)) (x11 (x13 x7 x7)) (x19 (x13 x95 x158)) (x68 (x13 x56 x56)) (x126 (x13 x7 x56)) (x71 (x13 x7 x102)) (x142 (x13 x158 x102)) (x65 (x13 x7 x95)) (x131 (x13 x95 x95)) (x141 (x13 x95 x56)) (x121 (x13 x158 x7)) (x12 (x13 x56 x102)) (x133 (x13 x7 x158)) (x36 (x13 x102 x7)) (x108 (x13 x95 x7)) (x152 (x13 x158 x158)) (x67 (x13 x102 x56)) (x74 (x13 x102 x95)) (x44 (x13 x56 x158)) (x136 (x13 x158 x95))) (or (or (or (or (not (= x122 x142)) (or (not (= x121 x133)) (not (= x136 x19)))) (not (= x44 x146))) (not (= x152 x152))) (or (or (or (or (not (= x12 x67)) (or (not (= x115 x115)) (or (not (= x74 x17)) (not (= x71 x36))))) (not (= x122 x142))) (or (or (not (= x121 x133)) (or (or (not (= x71 x36)) (or (not (= x65 x108)) (not (= x11 x11)))) (not (= x5 x126)))) (or (not (= x136 x19)) (or (or (not (= x74 x17)) (or (not (= x131 x131)) (not (= x108 x65)))) (not (= x9 x141)))))) (or (or (or (not (= x12 x67)) (or (not (= x5 x126)) (not (= x141 x9)))) (not (= x68 x68))) (not (= x44 x146)))))))
(assert (let ((x126 (x13 x102 x7)) (x136 (x13 x56 x102)) (x36 (x13 x7 x102)) (x19 (x13 x56 x7)) (x121 (x13 x56 x158)) (x17 (x13 x95 x158)) (x141 (x13 x7 x158)) (x5 (x13 x102 x102)) (x122 (x13 x158 x95)) (x9 (x13 x102 x95)) (x11 (x13 x95 x56)) (x67 (x13 x102 x56)) (x133 (x13 x56 x56)) (x142 (x13 x158 x7)) (x68 (x13 x56 x95)) (x146 (x13 x158 x56)) (x12 (x13 x102 x158)) (x131 (x13 x95 x95)) (x74 (x13 x7 x95)) (x115 (x13 x7 x56)) (x44 (x13 x158 x102)) (x65 (x13 x95 x102)) (x71 (x13 x7 x7)) (x108 (x13 x95 x7)) (x152 (x13 x158 x158))) (and (and (and (and (and (and (and (and (or (or (or (= x131 x102) (or (= x131 x7) (= x131 x95))) (= x56 x131)) (= x131 x158)) (or (= x108 x158) (or (= x56 x108) (or (= x108 x102) (or (= x108 x95) (= x7 x108)))))) (or (or (or (= x65 x102) (or (= x65 x7) (= x95 x65))) (= x56 x65)) (= x158 x65))) (or (or (or (= x102 x11) (or (= x11 x95) (= x11 x7))) (= x11 x56)) (= x11 x158))) (or (= x17 x158) (or (or (= x102 x17) (or (= x7 x17) (= x95 x17))) (= x17 x56)))) (and (or (= x141 x158) (or (= x56 x141) (or (or (= x141 x7) (= x141 x95)) (= x102 x141)))) (and (and (or (or (= x56 x36) (or (= x102 x36) (or (= x36 x7) (= x95 x36)))) (= x158 x36)) (and (or (= x158 x71) (or (= x56 x71) (or (= x102 x71) (or (= x71 x95) (= x71 x7))))) (or (= x74 x158) (or (= x74 x56) (or (= x74 x102) (or (= x74 x95) (= x7 x74))))))) (or (or (= x56 x115) (or (= x102 x115) (or (= x7 x115) (= x95 x115)))) (= x115 x158))))) (and (or (or (or (= x102 x12) (or (= x95 x12) (= x12 x7))) (= x12 x56)) (= x158 x12)) (and (or (= x67 x158) (or (= x56 x67) (or (= x67 x102) (or (= x7 x67) (= x95 x67))))) (and (or (or (= x56 x5) (or (or (= x5 x7) (= x95 x5)) (= x5 x102))) (= x5 x158)) (and (or (or (or (or (= x126 x7) (= x126 x95)) (= x102 x126)) (= x126 x56)) (= x158 x126)) (or (= x158 x9) (or (or (= x9 x102) (or (= x7 x9) (= x9 x95))) (= x56 x9)))))))) (and (and (and (and (or (or (= x56 x19) (or (= x102 x19) (or (= x19 x95) (= x7 x19)))) (= x19 x158)) (or (or (= x56 x68) (or (= x68 x102) (or (= x68 x95) (= x68 x7)))) (= x158 x68))) (or (= x136 x158) (or (= x136 x56) (or (or (= x136 x7) (= x95 x136)) (= x102 x136))))) (or (= x133 x158) (or (or (or (= x133 x7) (= x133 x95)) (= x102 x133)) (= x133 x56)))) (or (= x121 x158) (or (or (= x102 x121) (or (= x121 x95) (= x7 x121))) (= x56 x121))))) (and (and (and (or (or (or (= x102 x44) (or (= x7 x44) (= x95 x44))) (= x56 x44)) (= x158 x44)) (and (or (or (= x56 x122) (or (= x122 x102) (or (= x122 x95) (= x122 x7)))) (= x158 x122)) (or (or (= x56 x142) (or (or (= x142 x95) (= x7 x142)) (= x102 x142))) (= x158 x142)))) (or (= x146 x158) (or (= x56 x146) (or (= x146 x102) (or (= x7 x146) (= x95 x146)))))) (or (= x152 x158) (or (or (or (= x7 x152) (= x152 x95)) (= x152 x102)) (= x56 x152)))))))
(assert (not (and (and (= (x13 x95 x7) x56) (and (= (x13 x95 x56) x158) (= x95 (x13 x7 x7)))) (= x102 (x13 x7 x158)))))
(assert (or (or (or (and (not (= (x13 x102 (x13 x102 x158)) x158)) (and (not (= x56 (x13 x102 (x13 x102 x56)))) (and (not (= (x13 x102 (x13 x102 x102)) x102)) (and (not (= x95 (x13 x102 (x13 x102 x95)))) (not (= (x13 x102 (x13 x102 x7)) x7)))))) (or (and (and (and (not (= x102 (x13 x95 (x13 x95 x102)))) (and (not (= (x13 x95 (x13 x95 x95)) x95)) (not (= (x13 x95 (x13 x95 x7)) x7)))) (not (= x56 (x13 x95 (x13 x95 x56))))) (not (= (x13 x95 (x13 x95 x158)) x158))) (and (not (= (x13 x7 (x13 x7 x158)) x158)) (and (and (and (not (= x95 (x13 x7 (x13 x7 x95)))) (not (= (x13 x7 (x13 x7 x7)) x7))) (not (= (x13 x7 (x13 x7 x102)) x102))) (not (= x56 (x13 x7 (x13 x7 x56)))))))) (and (and (and (not (= (x13 x56 (x13 x56 x102)) x102)) (and (not (= (x13 x56 (x13 x56 x95)) x95)) (not (= (x13 x56 (x13 x56 x7)) x7)))) (not (= x56 (x13 x56 (x13 x56 x56))))) (not (= (x13 x56 (x13 x56 x158)) x158)))) (and (not (= x158 (x13 x158 (x13 x158 x158)))) (and (and (not (= (x13 x158 (x13 x158 x102)) x102)) (and (not (= (x13 x158 (x13 x158 x7)) x7)) (not (= (x13 x158 (x13 x158 x95)) x95)))) (not (= x56 (x13 x158 (x13 x158 x56))))))))
(assert (not (and (= (x13 x56 x158) x7) (and (and (= x102 (x13 x56 x56)) (= x158 (x13 x102 x95))) (= (x13 x102 x56) x95)))))
(assert (not (and (and (= (x13 x158 x95) x102) (and (= x7 (x13 x158 x102)) (= (x13 x95 x95) x158))) (= (x13 x95 x7) x56))))
(assert (not (and (and (= (x13 x56 x7) x95) (and (= (x13 x56 x95) x102) (= x56 (x13 x7 x7)))) (= (x13 x7 x102) x158))))
(assert (not (and (and (and (= x102 (x13 x7 x56)) (= x7 (x13 x158 x158))) (= x56 (x13 x7 x158))) (= (x13 x158 x102) x95))))
(assert (not (and (and (and (= x7 (x13 x95 x56)) (= x95 (x13 x102 x102))) (= x56 (x13 x95 x102))) (= x158 (x13 x102 x7)))))
(assert (not (and (and (and (= x95 (x13 x102 x102)) (= (x13 x95 x56) x158)) (= (x13 x95 x102) x56)) (= x7 (x13 x102 x158)))))
(assert (not (and (and (and (= x95 (x13 x56 x7)) (= x56 (x13 x102 x102))) (= (x13 x56 x102) x7)) (= x158 (x13 x102 x95)))))
(assert (not (and (= (x13 x7 x56) x102) (and (and (= x56 (x13 x95 x158)) (= x95 (x13 x7 x7))) (= (x13 x95 x7) x158)))))
(assert (not (and (= (x13 x158 x95) x56) (and (and (= (x13 x7 x102) x95) (= (x13 x158 x158) x7)) (= x102 (x13 x7 x158))))))
(assert (not (and (and (and (= (x13 x56 x56) x102) (= x7 (x13 x102 x95))) (= (x13 x102 x56) x95)) (= (x13 x56 x7) x158))))
(assert (not (and (= (x13 x56 x7) x102) (and (= (x13 x95 x56) x158) (and (= x7 (x13 x95 x158)) (= x95 (x13 x56 x56)))))))
(assert (not (and (and (and (= x56 (x13 x158 x158)) (= x102 (x13 x56 x95))) (= (x13 x56 x158) x95)) (= (x13 x158 x102) x7))))
(assert (not (and (and (and (= (x13 x95 x102) x7) (= (x13 x158 x158) x95)) (= x102 (x13 x95 x158))) (= (x13 x158 x7) x56))))
(assert (not (and (and (and (= x95 (x13 x56 x158)) (= (x13 x7 x7) x56)) (= (x13 x56 x7) x158)) (= x102 (x13 x7 x95)))))
(assert (not (and (= x56 (x13 x95 x102)) (and (= x7 (x13 x158 x95)) (and (= (x13 x95 x95) x158) (= (x13 x158 x7) x102))))))
(assert (not (and (= x7 (x13 x56 x102)) (and (and (= x158 (x13 x56 x56)) (= (x13 x158 x95) x102)) (= x95 (x13 x158 x56))))))
(assert (or (and (not (= (x13 x158 x158) x158)) (and (and (and (not (= (x13 x7 x158) x7)) (not (= (x13 x95 x158) x95))) (not (= (x13 x102 x158) x102))) (not (= (x13 x56 x158) x56)))) (or (and (and (not (= x56 (x13 x56 x56))) (and (and (not (= x95 (x13 x95 x56))) (not (= x7 (x13 x7 x56)))) (not (= x102 (x13 x102 x56))))) (not (= (x13 x158 x56) x158))) (or (and (and (and (not (= (x13 x102 x102) x102)) (and (not (= (x13 x7 x102) x7)) (not (= (x13 x95 x102) x95)))) (not (= (x13 x56 x102) x56))) (not (= (x13 x158 x102) x158))) (or (and (and (not (= x56 (x13 x56 x7))) (and (not (= x102 (x13 x102 x7))) (and (not (= (x13 x7 x7) x7)) (not (= x95 (x13 x95 x7)))))) (not (= x158 (x13 x158 x7)))) (and (and (and (and (not (= x95 (x13 x95 x95))) (not (= x7 (x13 x7 x95)))) (not (= x102 (x13 x102 x95)))) (not (= (x13 x56 x95) x56))) (not (= x158 (x13 x158 x95)))))))))
(assert (not (and (and (and (= x56 (x13 x95 x95)) (= (x13 x56 x102) x158)) (= (x13 x56 x95) x102)) (= x7 (x13 x95 x158)))))
(assert (not (and (= x95 (x13 x102 x56)) (and (= (x13 x158 x102) x7) (and (= (x13 x102 x102) x158) (= x56 (x13 x158 x7)))))))
(assert (not (and (and (and (= (x13 x56 x7) x158) (= x56 (x13 x95 x95))) (= x7 (x13 x56 x95))) (= x102 (x13 x95 x158)))))
(assert (not (and (and (= (x13 x158 x102) x56) (and (= (x13 x102 x102) x158) (= x95 (x13 x158 x56)))) (= (x13 x102 x95) x7))))
(assert (not (and (and (and (= x158 (x13 x102 x7)) (= x102 (x13 x56 x56))) (= x7 (x13 x102 x56))) (= x95 (x13 x56 x158)))))
(assert (not (and (= x56 (x13 x95 x158)) (and (= (x13 x7 x95) x102) (and (= x158 (x13 x7 x102)) (= x7 (x13 x95 x95)))))))
(assert (not (and (and (= (x13 x102 x7) x158) (and (= x102 (x13 x7 x7)) (= x95 (x13 x102 x158)))) (= x56 (x13 x7 x95)))))
(assert (not (and (= (x13 x7 x158) x95) (and (= (x13 x102 x7) x56) (and (= (x13 x102 x56) x158) (= (x13 x7 x7) x102))))))
(assert (let ((x131 (x13 x95 x95)) (x17 (x13 x158 x158)) (x108 (x13 x7 x7)) (x65 (x13 x102 x102)) (x11 (x13 x56 x56))) (and (and (or (= x17 x56) (or (or (or (= x56 x131) (= x56 x108)) (= x65 x56)) (= x56 x11))) (and (or (= x102 x17) (or (or (= x65 x102) (or (= x108 x102) (= x131 x102))) (= x11 x102))) (and (or (= x17 x7) (or (= x7 x11) (or (or (= x108 x7) (= x7 x131)) (= x65 x7)))) (or (or (or (or (= x95 x131) (= x108 x95)) (= x95 x65)) (= x95 x11)) (= x95 x17))))) (or (or (= x11 x158) (or (= x158 x65) (or (= x158 x108) (= x131 x158)))) (= x158 x17)))))
(assert (not (and (and (= x102 (x13 x95 x56)) (and (= (x13 x56 x56) x95) (= x158 (x13 x95 x102)))) (= (x13 x56 x158) x7))))
(assert (not (and (and (= x95 (x13 x56 x7)) (and (= (x13 x7 x7) x56) (= x158 (x13 x56 x95)))) (= (x13 x7 x158) x102))))
(assert (not (and (= (x13 x95 x7) x56) (and (= (x13 x102 x95) x158) (and (= x102 (x13 x95 x95)) (= (x13 x102 x158) x7))))))
(assert (not (and (and (= x56 (x13 x7 x158)) (and (= x7 (x13 x158 x158)) (= (x13 x7 x56) x95))) (= x102 (x13 x158 x95)))))
(assert (let ((x44 (x13 x158 x102)) (x131 (x13 x95 x95)) (x141 (x13 x7 x158)) (x133 (x13 x56 x56)) (x74 (x13 x7 x95)) (x108 (x13 x95 x7)) (x19 (x13 x56 x7)) (x126 (x13 x102 x7)) (x9 (x13 x102 x95)) (x142 (x13 x158 x7)) (x12 (x13 x102 x158)) (x67 (x13 x102 x56)) (x65 (x13 x95 x102)) (x68 (x13 x56 x95)) (x71 (x13 x7 x7)) (x5 (x13 x102 x102)) (x152 (x13 x158 x158)) (x17 (x13 x95 x158)) (x136 (x13 x56 x102)) (x115 (x13 x7 x56)) (x146 (x13 x158 x56)) (x121 (x13 x56 x158)) (x36 (x13 x7 x102)) (x11 (x13 x95 x56)) (x122 (x13 x158 x95))) (and (or (and (and (and (and (not (= x158 (x13 x7 x142))) (not (= x158 (x13 x95 x122)))) (not (= x158 (x13 x102 x44)))) (not (= x158 (x13 x56 x146)))) (not (= x158 (x13 x158 x152)))) (or (and (not (= (x13 x158 x121) x56)) (and (not (= (x13 x56 x133) x56)) (and (not (= (x13 x102 x136) x56)) (and (not (= (x13 x95 x68) x56)) (not (= x56 (x13 x7 x19))))))) (or (and (not (= x102 (x13 x158 x12))) (and (and (not (= (x13 x102 x5) x102)) (and (not (= (x13 x95 x9) x102)) (not (= (x13 x7 x126) x102)))) (not (= (x13 x56 x67) x102)))) (or (and (and (and (not (= (x13 x102 x36) x7)) (and (not (= (x13 x7 x71) x7)) (not (= (x13 x95 x74) x7)))) (not (= x7 (x13 x56 x115)))) (not (= (x13 x158 x141) x7))) (and (and (and (and (not (= x95 (x13 x7 x108))) (not (= (x13 x95 x131) x95))) (not (= x95 (x13 x102 x65)))) (not (= (x13 x56 x11) x95))) (not (= x95 (x13 x158 x17)))))))) (and (or (= (x13 x152 x158) x158) (or (= (x13 x146 x158) x56) (or (or (= (x13 x122 x158) x95) (= (x13 x142 x158) x7)) (= x102 (x13 x44 x158))))) (and (and (and (or (= (x13 x141 x7) x158) (or (or (or (= (x13 x71 x7) x7) (= x95 (x13 x74 x7))) (= (x13 x36 x7) x102)) (= (x13 x115 x7) x56))) (or (= x158 (x13 x17 x95)) (or (or (or (= (x13 x108 x95) x7) (= (x13 x131 x95) x95)) (= x102 (x13 x65 x95))) (= x56 (x13 x11 x95))))) (or (= (x13 x12 x102) x158) (or (= x56 (x13 x67 x102)) (or (= (x13 x5 x102) x102) (or (= x95 (x13 x9 x102)) (= x7 (x13 x126 x102))))))) (or (= (x13 x121 x56) x158) (or (or (= x102 (x13 x136 x56)) (or (= (x13 x68 x56) x95) (= (x13 x19 x56) x7))) (= x56 (x13 x133 x56)))))))))
(assert (not (and (= (x13 x95 x56) x158) (and (and (= (x13 x95 x95) x7) (= x56 (x13 x7 x102))) (= x102 (x13 x7 x95))))))
(assert (not (and (and (= (x13 x102 x7) x158) (and (= (x13 x102 x158) x56) (= (x13 x7 x7) x102))) (= x95 (x13 x7 x56)))))
(assert (not (and (= x102 (x13 x95 x56)) (and (= x158 (x13 x7 x95)) (and (= x7 (x13 x95 x95)) (= x56 (x13 x7 x158)))))))
(assert (not (and (and (= x95 (x13 x102 x158)) (and (= (x13 x158 x158) x102) (= (x13 x102 x95) x7))) (= x56 (x13 x158 x7)))))
(assert (not (and (and (and (= x158 (x13 x7 x95)) (= x7 (x13 x102 x102))) (= (x13 x7 x102) x95)) (= (x13 x102 x158) x56))))
(assert (not (and (and (and (= (x13 x56 x102) x95) (= x56 (x13 x158 x158))) (= x102 (x13 x56 x158))) (= (x13 x158 x95) x7))))
(assert (not (and (and (= x95 (x13 x7 x102)) (and (= x7 (x13 x102 x102)) (= (x13 x7 x95) x56))) (= x158 (x13 x102 x56)))))
(assert (not (and (and (= x95 (x13 x102 x7)) (and (= x56 (x13 x102 x95)) (= (x13 x7 x7) x102))) (= (x13 x7 x56) x158))))
(assert (not (and (and (and (= x158 (x13 x95 x95)) (= x56 (x13 x158 x102))) (= x102 (x13 x158 x95))) (= (x13 x95 x56) x7))))
(assert (not (and (= x102 (x13 x95 x7)) (and (= (x13 x56 x95) x158) (and (= (x13 x95 x95) x56) (= x7 (x13 x56 x158)))))))
(assert (not (and (= x56 (x13 x102 x158)) (and (= x7 (x13 x95 x102)) (and (= x158 (x13 x95 x7)) (= x95 (x13 x102 x102)))))))
(assert (not (and (= (x13 x56 x102) x158) (and (and (= x7 (x13 x56 x56)) (= (x13 x7 x95) x102)) (= x95 (x13 x7 x56))))))
(assert (not (and (= x7 (x13 x102 x95)) (and (= (x13 x56 x102) x158) (and (= x95 (x13 x56 x158)) (= (x13 x102 x102) x56))))))
(assert (not (and (= x7 (x13 x95 x102)) (and (= x158 (x13 x56 x95)) (and (= (x13 x95 x95) x56) (= x102 (x13 x56 x158)))))))
(assert (not (and (and (and (= (x13 x7 x158) x95) (= x7 (x13 x102 x102))) (= x158 (x13 x7 x102))) (= (x13 x102 x95) x56))))
(assert (not (and (= (x13 x158 x7) x102) (and (and (= (x13 x95 x56) x7) (= x95 (x13 x158 x158))) (= (x13 x95 x158) x56)))))
(assert (not (and (= (x13 x95 x7) x102) (and (and (= (x13 x95 x95) x158) (= x7 (x13 x158 x56))) (= x56 (x13 x158 x95))))))
(assert (not (and (and (= (x13 x56 x95) x102) (and (= (x13 x56 x102) x7) (= (x13 x95 x95) x56))) (= x158 (x13 x95 x7)))))
(assert (not (and (and (= (x13 x102 x158) x56) (and (= x102 (x13 x158 x158)) (= (x13 x102 x56) x7))) (= x95 (x13 x158 x7)))))
(assert (not (and (and (= x158 (x13 x56 x7)) (and (= (x13 x7 x7) x56) (= x102 (x13 x56 x158)))) (= x95 (x13 x7 x102)))))
(assert (not (and (= x56 (x13 x7 x95)) (and (and (= (x13 x158 x102) x95) (= (x13 x7 x7) x158)) (= x102 (x13 x158 x7))))))
(assert (not (and (= (x13 x158 x102) x56) (and (and (= x95 (x13 x158 x158)) (= x102 (x13 x95 x7))) (= (x13 x95 x158) x7)))))
(assert (not (and (and (= x7 (x13 x95 x56)) (and (= x158 (x13 x95 x7)) (= x95 (x13 x56 x56)))) (= (x13 x56 x158) x102))))
(assert (not (and (= (x13 x95 x56) x7) (and (and (= x102 (x13 x95 x95)) (= (x13 x102 x158) x56)) (= x158 (x13 x102 x95))))))
(assert (not (and (and (= (x13 x102 x56) x158) (and (= x95 (x13 x102 x158)) (= x102 (x13 x56 x56)))) (= (x13 x56 x95) x7))))
(assert (not (and (and (and (= x158 (x13 x56 x56)) (= (x13 x158 x95) x7)) (= (x13 x158 x56) x95)) (= x102 (x13 x56 x7)))))
(assert (not (and (and (and (= (x13 x95 x158) x102) (= (x13 x56 x56) x95)) (= (x13 x95 x56) x158)) (= (x13 x56 x102) x7))))
(assert (not (and (and (= (x13 x102 x158) x7) (and (= (x13 x158 x158) x102) (= (x13 x102 x7) x95))) (= (x13 x158 x95) x56))))
(assert (not (and (= x7 (x13 x158 x56)) (and (= x102 (x13 x95 x158)) (and (= x95 (x13 x158 x158)) (= x56 (x13 x95 x102)))))))
(assert (not (and (and (= x95 (x13 x56 x102)) (and (= (x13 x102 x102) x56) (= (x13 x56 x95) x158))) (= (x13 x102 x158) x7))))
(assert (not (and (= (x13 x56 x95) x158) (and (= (x13 x102 x56) x7) (and (= (x13 x56 x56) x102) (= (x13 x102 x7) x95))))))
(assert (not (and (and (= (x13 x102 x95) x56) (and (= x102 (x13 x95 x95)) (= (x13 x102 x56) x7))) (= (x13 x95 x7) x158))))
(assert (not (and (and (and (= (x13 x158 x56) x102) (= x158 (x13 x95 x95))) (= (x13 x158 x95) x56)) (= x7 (x13 x95 x102)))))
(assert (not (and (= x95 (x13 x56 x102)) (and (= x158 (x13 x7 x56)) (and (= (x13 x7 x158) x102) (= x7 (x13 x56 x56)))))))
(assert (not (and (= (x13 x102 x56) x7) (and (and (= x158 (x13 x102 x102)) (= (x13 x158 x95) x56)) (= x95 (x13 x158 x102))))))
(assert (not (and (= (x13 x102 x56) x95) (and (and (= x56 (x13 x7 x158)) (= x7 (x13 x102 x102))) (= (x13 x7 x102) x158)))))
(assert (not (and (= (x13 x158 x56) x102) (and (= (x13 x7 x158) x95) (and (= (x13 x7 x95) x56) (= x7 (x13 x158 x158)))))))
(assert (not (and (and (= (x13 x7 x158) x102) (and (= x7 (x13 x158 x158)) (= (x13 x7 x102) x56))) (= x95 (x13 x158 x56)))))
(assert (not (and (= x95 (x13 x102 x158)) (and (= x56 (x13 x7 x102)) (and (= x7 (x13 x102 x102)) (= x158 (x13 x7 x56)))))))
(assert (and (and (and (not (= x102 x56)) (and (not (= x7 x158)) (and (not (= x56 x7)) (and (not (= x102 x7)) (and (not (= x158 x95)) (and (and (not (= x95 x7)) (not (= x95 x102))) (not (= x56 x95)))))))) (not (= x158 x102))) (not (= x56 x158))))
(assert (not (and (and (= x158 (x13 x95 x102)) (and (= x95 (x13 x102 x102)) (= (x13 x95 x158) x56))) (= x7 (x13 x102 x56)))))
(assert (not (and (and (= (x13 x95 x56) x102) (and (= (x13 x56 x56) x95) (= (x13 x95 x102) x7))) (= x158 (x13 x56 x7)))))
(assert (not (and (= (x13 x95 x158) x56) (and (= x7 (x13 x102 x95)) (and (= x158 (x13 x102 x7)) (= x102 (x13 x95 x95)))))))
(assert (not (and (and (= x95 (x13 x158 x102)) (and (= x158 (x13 x102 x102)) (= (x13 x158 x95) x7))) (= x56 (x13 x102 x7)))))
(assert (not (and (and (= (x13 x7 x56) x158) (and (= (x13 x56 x56) x7) (= (x13 x7 x158) x95))) (= (x13 x56 x95) x102))))
(assert (not (and (= (x13 x56 x95) x7) (and (and (= x95 (x13 x158 x102)) (= (x13 x56 x56) x158)) (= x102 (x13 x158 x56))))))
(assert (not (and (and (= (x13 x7 x56) x102) (and (= x7 (x13 x56 x56)) (= x95 (x13 x7 x102)))) (= x158 (x13 x56 x95)))))
(assert (not (and (= (x13 x102 x7) x158) (and (= (x13 x56 x102) x95) (and (= x56 (x13 x102 x102)) (= x7 (x13 x56 x95)))))))
(assert (not (and (= x102 (x13 x95 x158)) (and (= x56 (x13 x7 x95)) (and (= (x13 x7 x56) x158) (= (x13 x95 x95) x7))))))
(assert (or (= x158 (x13 x158 x158)) (or (or (or (= (x13 x7 x7) x7) (= x95 (x13 x95 x95))) (= (x13 x102 x102) x102)) (= x56 (x13 x56 x56)))))
(assert (not (and (= (x13 x56 x102) x95) (and (and (= x158 (x13 x56 x56)) (= (x13 x158 x7) x102)) (= (x13 x158 x56) x7)))))
(assert (not (and (= (x13 x102 x158) x95) (and (and (= x158 (x13 x56 x7)) (= x56 (x13 x102 x102))) (= (x13 x56 x102) x7)))))
(assert (not (and (= x56 (x13 x7 x102)) (and (= x158 (x13 x95 x7)) (and (= (x13 x7 x7) x95) (= (x13 x95 x158) x102))))))
(assert (not (and (= x7 (x13 x95 x158)) (and (= (x13 x102 x95) x56) (and (= x102 (x13 x95 x95)) (= x158 (x13 x102 x56)))))))
(assert (not (and (= x102 (x13 x158 x56)) (and (= x7 (x13 x95 x158)) (and (= (x13 x158 x158) x95) (= x56 (x13 x95 x7)))))))
(assert (not (and (= x158 (x13 x95 x102)) (and (and (= (x13 x56 x7) x102) (= (x13 x95 x95) x56)) (= x7 (x13 x56 x95))))))
(assert (not (and (= x102 (x13 x56 x95)) (and (= x7 (x13 x158 x56)) (and (= x95 (x13 x158 x7)) (= x158 (x13 x56 x56)))))))
(assert (not (and (= (x13 x56 x7) x95) (and (= x158 (x13 x102 x56)) (and (= (x13 x56 x56) x102) (= x7 (x13 x102 x158)))))))
(assert (not (and (= (x13 x102 x7) x56) (and (= x158 (x13 x95 x102)) (and (= x95 (x13 x102 x102)) (= x7 (x13 x95 x158)))))))
(assert (not (and (= x95 (x13 x158 x56)) (and (= (x13 x102 x158) x7) (and (= x56 (x13 x102 x7)) (= x102 (x13 x158 x158)))))))
(assert (not (and (= (x13 x158 x56) x7) (and (and (= (x13 x158 x158) x102) (= (x13 x102 x95) x56)) (= (x13 x102 x158) x95)))))
(assert (not (and (and (= (x13 x95 x7) x102) (and (= x158 (x13 x95 x102)) (= x95 (x13 x7 x7)))) (= x56 (x13 x7 x158)))))
(assert (let ((x11 (x13 x56 x95)) (x122 (x13 x95 x158)) (x126 (x13 x7 x102)) (x141 (x13 x158 x7)) (x152 (x13 x158 x158)) (x44 (x13 x102 x158)) (x9 (x13 x95 x102)) (x5 (x13 x102 x102)) (x74 (x13 x95 x7)) (x65 (x13 x102 x95)) (x68 (x13 x95 x56)) (x17 (x13 x158 x95)) (x146 (x13 x56 x158)) (x142 (x13 x7 x158)) (x67 (x13 x56 x102)) (x36 (x13 x102 x7)) (x121 (x13 x158 x56)) (x115 (x13 x56 x7)) (x12 (x13 x158 x102)) (x136 (x13 x102 x56)) (x133 (x13 x56 x56)) (x108 (x13 x7 x95)) (x71 (x13 x7 x7)) (x131 (x13 x95 x95)) (x19 (x13 x7 x56))) (and (and (and (and (not (= x146 x133)) (and (and (not (= x67 x133)) (and (and (not (= x133 x115)) (and (and (and (and (not (= x11 x67)) (not (= x11 x115))) (not (= x133 x11))) (not (= x11 x146))) (not (= x67 x115)))) (not (= x115 x146)))) (not (= x67 x146)))) (and (and (and (and (and (not (= x19 x126)) (and (and (and (and (not (= x108 x142)) (and (not (= x108 x19)) (and (not (= x108 x126)) (not (= x71 x108))))) (not (= x126 x71))) (not (= x71 x19))) (not (= x142 x71)))) (not (= x142 x126))) (not (= x19 x142))) (and (and (and (and (and (and (not (= x74 x9)) (and (not (= x131 x122)) (and (not (= x68 x131)) (and (not (= x74 x131)) (not (= x131 x9)))))) (not (= x74 x68))) (not (= x74 x122))) (not (= x68 x9))) (not (= x9 x122))) (not (= x122 x68)))) (and (and (and (not (= x136 x5)) (and (not (= x44 x36)) (and (and (and (and (not (= x65 x136)) (and (not (= x36 x65)) (not (= x5 x65)))) (not (= x65 x44))) (not (= x36 x5))) (not (= x136 x36))))) (not (= x44 x5))) (not (= x136 x44))))) (and (and (not (= x152 x12)) (and (and (and (not (= x121 x141)) (and (and (and (not (= x121 x17)) (and (not (= x17 x141)) (not (= x12 x17)))) (not (= x17 x152))) (not (= x141 x12)))) (not (= x152 x141))) (not (= x121 x12)))) (not (= x152 x121)))) (and (and (and (and (not (= x44 x146)) (and (not (= x152 x142)) (and (and (not (= x142 x44)) (and (not (= x152 x122)) (and (and (not (= x142 x122)) (not (= x122 x44))) (not (= x122 x146))))) (not (= x146 x142))))) (not (= x44 x152))) (not (= x152 x146))) (and (and (not (= x121 x133)) (and (not (= x136 x121)) (and (not (= x136 x133)) (and (not (= x121 x19)) (and (and (and (not (= x68 x121)) (and (not (= x68 x133)) (and (not (= x68 x19)) (not (= x68 x136))))) (not (= x136 x19))) (not (= x19 x133))))))) (and (and (not (= x67 x12)) (and (and (not (= x5 x67)) (and (not (= x126 x12)) (and (not (= x67 x126)) (and (and (not (= x12 x9)) (and (and (not (= x9 x126)) (not (= x5 x9))) (not (= x67 x9)))) (not (= x126 x5)))))) (not (= x12 x5)))) (and (and (and (and (not (= x36 x115)) (and (and (not (= x115 x71)) (and (not (= x71 x36)) (and (and (and (not (= x74 x71)) (not (= x74 x36))) (not (= x115 x74))) (not (= x141 x74))))) (not (= x141 x71)))) (not (= x141 x36))) (not (= x115 x141))) (and (and (and (and (and (and (not (= x65 x108)) (and (and (not (= x131 x11)) (and (not (= x131 x65)) (not (= x108 x131)))) (not (= x17 x131)))) (not (= x108 x11))) (not (= x108 x17))) (not (= x11 x65))) (not (= x65 x17))) (not (= x17 x11))))))))))
(assert (not (and (= x95 (x13 x102 x7)) (and (and (= x7 (x13 x56 x158)) (= (x13 x102 x102) x56)) (= x158 (x13 x56 x102))))))
(assert (not (and (= (x13 x158 x102) x56) (and (= x95 (x13 x7 x158)) (and (= x7 (x13 x158 x158)) (= (x13 x7 x95) x102))))))
(assert (not (and (and (and (= x95 (x13 x158 x56)) (= (x13 x7 x7) x158)) (= (x13 x158 x7) x56)) (= (x13 x7 x95) x102))))
(check-sat)
(exit)
